data/solutions/planning/wellformed/moderate/sequential/wellformed_moderate_instance16_cplex.sol
Elapsed time: 0.04
Nodes explored: -
Nodes left: -
Relative gap: -
Upper bound: 41913.0
Lower bound: -
C[0]=5988.0
C[1]=5987.0
C[2]=5987.0
y[0]=0
y[1]=0
y[2]=2
y[3]=2
y[4]=1
y[5]=0
y[6]=1
y[7]=2
y[8]=0
y[9]=0
y[10]=1
y[11]=1
y[12]=2
y[13]=2
y[14]=0
y[15]=1
y[16]=0
y[17]=0
y[18]=2
y[19]=1
y[20]=0
y[21]=1
y[22]=2
y[23]=1
y[24]=0
y[25]=1
y[26]=0
y[27]=0
y[28]=2
y[29]=2
y[30]=1
y[31]=0
y[32]=1
y[33]=1
y[34]=2
y[35]=0
y[36]=2
y[37]=0
y[38]=1
y[39]=1
