data/solutions/planning/wellformed/moderate/sequential/wellformed_moderate_instance16_cplex.log
Found incumbent of value 17962.000000 after 0.00 sec. (0.01 ticks)
Tried aggregator 2 times.
Aggregator did 2 substitutions.
Reduced MIP has 43 rows, 121 columns, and 243 nonzeros.
Reduced MIP has 120 binaries, 0 generals, 0 SOSs, and 0 indicators.
Presolve time = 0.00 sec. (0.31 ticks)
Probing fixed 0 vars, tightened 5 bounds.
Probing time = 0.00 sec. (0.13 ticks)
Tried aggregator 1 time.
Reduced MIP has 43 rows, 121 columns, and 243 nonzeros.
Reduced MIP has 120 binaries, 1 generals, 0 SOSs, and 0 indicators.
Presolve time = 0.00 sec. (0.17 ticks)
Probing time = 0.00 sec. (0.08 ticks)
Clique table members: 40.
MIP emphasis: balance optimality and feasibility.
MIP search method: dynamic search.
Parallel mode: none, using 1 thread.
Root relaxation solution time = 0.00 sec. (0.12 ticks)

        Nodes                                         Cuts/
   Node  Left     Objective  IInf  Best Integer    Best Bound    ItCnt     Gap

*     0+    0                        17962.0000        0.0000           100.00%
      0     0     5987.3333     5    17962.0000     5987.3333        7   66.67%
*     0+    0                         6399.0000     5987.3333             6.43%
      0     0     5987.3333     9     6399.0000       Cuts: 6       11    6.43%
*     0+    0                         6094.0000     5987.3333             1.75%
      0     0     5987.3333     9     6094.0000       Cuts: 6       17    1.75%
*     0+    0                         5997.0000     5987.3333             0.16%
      0     2     5987.3333     9     5997.0000     5987.3333       17    0.16%
Elapsed time = 0.01 sec. (3.46 ticks, tree = 0.01 MB, solutions = 4)
*    39    33      integral     0     5991.0000     5987.3333      112    0.06%
*   139+  115                         5990.0000     5987.3333             0.04%
*   139+  115                         5989.0000     5987.3333             0.03%
*   217     0      integral     0     5988.0000     5987.3333      432    0.01%

Cover cuts applied:  6
Gomory fractional cuts applied:  1

Root node processing (before b&c):
  Real time             =    0.01 sec. (3.46 ticks)
Sequential b&c:
  Real time             =    0.03 sec. (16.01 ticks)
                          ------------
Total (root+branch&cut) =    0.04 sec. (19.47 ticks)
2 of 8 MIP starts provided solutions.
MIP start 'm1' defined initial solution with objective 5987.0000.
Tried aggregator 2 times.
MIP Presolve eliminated 1 rows and 0 columns.
Aggregator did 1 substitutions.
Reduced MIP has 44 rows, 122 columns, and 245 nonzeros.
Reduced MIP has 120 binaries, 0 generals, 0 SOSs, and 0 indicators.
Presolve time = 0.00 sec. (0.26 ticks)
Probing time = 0.00 sec. (0.09 ticks)
Cover probing fixed 0 vars, tightened 4 bounds.
Tried aggregator 1 time.
Reduced MIP has 44 rows, 122 columns, and 245 nonzeros.
Reduced MIP has 120 binaries, 2 generals, 0 SOSs, and 0 indicators.
Presolve time = 0.00 sec. (0.17 ticks)
Probing time = 0.00 sec. (0.07 ticks)
Clique table members: 40.
MIP emphasis: balance optimality and feasibility.
MIP search method: dynamic search.
Parallel mode: none, using 1 thread.
Root relaxation solution time = 0.00 sec. (0.22 ticks)

        Nodes                                         Cuts/
   Node  Left     Objective  IInf  Best Integer    Best Bound    ItCnt     Gap

*     0+    0                         5987.0000        0.0000           100.00%
      0     0        cutoff           5987.0000                     60    0.00%

Root node processing (before b&c):
  Real time             =    0.00 sec. (1.10 ticks)
Sequential b&c:
  Real time             =    0.00 sec. (0.00 ticks)
                          ------------
Total (root+branch&cut) =    0.00 sec. (1.10 ticks)
1 of 1 MIP starts provided solutions.
MIP start 'm1' defined initial solution with objective 5987.0000.
Tried aggregator 2 times.
MIP Presolve eliminated 3 rows and 0 columns.
Aggregator did 1 substitutions.
Reduced MIP has 44 rows, 122 columns, and 245 nonzeros.
Reduced MIP has 120 binaries, 0 generals, 0 SOSs, and 0 indicators.
Presolve time = 0.00 sec. (0.25 ticks)
Probing time = 0.00 sec. (0.09 ticks)
Cover probing fixed 0 vars, tightened 4 bounds.
Tried aggregator 1 time.
Reduced MIP has 44 rows, 122 columns, and 245 nonzeros.
Reduced MIP has 120 binaries, 2 generals, 0 SOSs, and 0 indicators.
Presolve time = 0.00 sec. (0.17 ticks)
Probing time = 0.00 sec. (0.07 ticks)
Clique table members: 40.
MIP emphasis: balance optimality and feasibility.
MIP search method: dynamic search.
Parallel mode: none, using 1 thread.
Root relaxation solution time = 0.00 sec. (0.17 ticks)

        Nodes                                         Cuts/
   Node  Left     Objective  IInf  Best Integer    Best Bound    ItCnt     Gap

*     0+    0                         5987.0000        0.0000           100.00%
      0     0        cutoff           5987.0000                     52    0.00%

Root node processing (before b&c):
  Real time             =    0.00 sec. (1.04 ticks)
Sequential b&c:
  Real time             =    0.00 sec. (0.00 ticks)
                          ------------
Total (root+branch&cut) =    0.00 sec. (1.04 ticks)
